
n_res = 4;
rcap = [38, 35, 474, 493];
rtype = [1, 1, 2, 2];
n_tasks = 50;
modes =  [{1, 2, 3, 4, 5, 6}, {7, 8, 9, 10, 11, 12}, {13, 14, 15, 16, 17, 18}, {19, 20, 21, 22, 23, 24}, {25, 26, 27, 28, 29, 30}, {31, 32, 33, 34, 35, 36}, {37, 38, 39, 40, 41, 42}, {43, 44, 45, 46, 47, 48}, {49, 50, 51, 52, 53, 54}, {55, 56, 57, 58, 59, 60}, {61, 62, 63, 64, 65, 66}, {67, 68, 69, 70, 71, 72}, {73, 74, 75, 76, 77, 78}, {79, 80, 81, 82, 83, 84}, {85, 86, 87, 88, 89, 90}, {91, 92, 93, 94, 95, 96}, {97, 98, 99, 100, 101, 102}, {103, 104, 105, 106, 107, 108}, {109, 110, 111, 112, 113, 114}, {115, 116, 117, 118, 119, 120}, {121, 122, 123, 124, 125, 126}, {127, 128, 129, 130, 131, 132}, {133, 134, 135, 136, 137, 138}, {139, 140, 141, 142, 143, 144}, {145, 146, 147, 148, 149, 150}, {151, 152, 153, 154, 155, 156}, {157, 158, 159, 160, 161, 162}, {163, 164, 165, 166, 167, 168}, {169, 170, 171, 172, 173, 174}, {175, 176, 177, 178, 179, 180}, {181, 182, 183, 184, 185, 186}, {187, 188, 189, 190, 191, 192}, {193, 194, 195, 196, 197, 198}, {199, 200, 201, 202, 203, 204}, {205, 206, 207, 208, 209, 210}, {211, 212, 213, 214, 215, 216}, {217, 218, 219, 220, 221, 222}, {223, 224, 225, 226, 227, 228}, {229, 230, 231, 232, 233, 234}, {235, 236, 237, 238, 239, 240}, {241, 242, 243, 244, 245, 246}, {247, 248, 249, 250, 251, 252}, {253, 254, 255, 256, 257, 258}, {259, 260, 261, 262, 263, 264}, {265, 266, 267, 268, 269, 270}, {271, 272, 273, 274, 275, 276}, {277, 278, 279, 280, 281, 282}, {283, 284, 285, 286, 287, 288}, {289, 290, 291, 292, 293, 294}, {295, 296, 297, 298, 299, 300}];
succ =  [{12, 3}, {30, 24, 21, 18, 16, 10}, {30, 24, 21, 16, 10}, {30, 25, 24, 16, 10}, {30, 22, 21, 16, 10}, {27, 24, 21, 16, 12}, {30, 24, 21, 18, 10}, {34, 30, 28, 27, 24, 21, 18, 16}, {27, 24, 16, 12}, {39, 38, 34, 31, 29, 28, 27, 26, 23, 20}, {40, 34, 31, 30, 28, 26, 24, 23, 21}, {39, 34, 28, 26, 23, 20, 18}, {31, 28, 27, 21, 16}, {33, 31, 28, 24, 16}, {39, 27, 23, 18}, {40, 39, 38, 37, 36, 29, 26, 23}, {49, 40, 39, 37, 36, 32, 27}, {50, 49, 47, 44, 38, 36, 35, 33, 31, 29}, {50, 47, 37, 34, 30, 29, 26}, {50, 49, 48, 46, 40, 37, 36, 35, 33, 32}, {39, 38, 37, 36, 29}, {50, 49, 48, 47, 46, 45, 43, 42, 41}, {50, 48, 47, 44, 43, 35, 32}, {50, 47, 45, 44, 42, 38, 36}, {49, 48, 47, 46, 45, 44, 35}, {49, 48, 46, 44, 43, 32}, {50, 46, 45, 35, 33}, {49, 48, 47, 45, 43, 42, 41}, {48, 46, 45, 43, 42, 41}, {45, 44, 43, 42, 41}, {46, 45, 42, 41}, {42, 41}, {43, 42}, {44, 42}, {41}, {41}, {44}, {43}, {47}, {43}, {}, {}, {}, {}, {}, {}, {}, {}, {}, {}];
n_opt = 300;
dur = [2, 5, 12, 13, 14, 19, 4, 8, 9, 15, 16, 17, 2, 7, 15, 16, 17, 19, 3, 4, 8, 9, 13, 18, 3, 5, 7, 8, 14, 18, 1, 5, 7, 8, 12, 13, 1, 3, 7, 10, 13, 20, 3, 4, 6, 9, 10, 11, 5, 8, 9, 13, 14, 18, 4, 7, 10, 11, 12, 13, 7, 9, 14, 16, 18, 19, 4, 10, 13, 16, 17, 18, 3, 7, 8, 9, 13, 16, 3, 6, 7, 12, 18, 19, 2, 3, 10, 11, 12, 18, 3, 4, 7, 15, 16, 20, 7, 9, 11, 13, 18, 19, 5, 6, 9, 13, 14, 18, 2, 8, 10, 12, 14, 19, 5, 6, 13, 14, 16, 20, 2, 6, 7, 13, 15, 16, 1, 2, 4, 5, 12, 16, 5, 8, 9, 10, 18, 19, 1, 2, 7, 8, 10, 12, 3, 4, 6, 10, 14, 18, 6, 7, 10, 16, 17, 19, 7, 12, 13, 14, 16, 19, 2, 4, 6, 12, 14, 15, 1, 2, 8, 12, 13, 16, 1, 5, 8, 12, 16, 19, 2, 7, 10, 12, 17, 18, 1, 4, 5, 8, 15, 17, 1, 2, 3, 4, 14, 18, 1, 3, 10, 11, 19, 20, 4, 5, 6, 13, 14, 17, 3, 8, 14, 15, 18, 20, 1, 2, 5, 6, 8, 19, 1, 2, 4, 5, 18, 19, 3, 5, 6, 9, 13, 14, 4, 5, 11, 14, 15, 20, 11, 11, 12, 18, 19, 20, 1, 6, 7, 9, 10, 12, 5, 6, 13, 14, 16, 20, 7, 8, 9, 10, 16, 18, 1, 2, 8, 17, 18, 20, 2, 9, 10, 14, 15, 20, 8, 9, 10, 11, 18, 19, 4, 5, 7, 8, 17, 20, 3, 5, 8, 9, 14, 15, 6, 7, 11, 14, 15, 16];
rreq = [|4, 3, 3, 3, 3, 3, 5, 4, 4, 4, 4, 4, 1, 1, 1, 1, 1, 1, 5, 4, 4, 3, 2, 2, 2, 2, 2, 2, 2, 2, 3, 3, 3, 3, 3, 3, 2, 2, 2, 2, 2, 2, 4, 3, 3, 3, 3, 3, 3, 3, 3, 3, 2, 2, 4, 4, 4, 4, 4, 4, 5, 3, 3, 2, 2, 1, 4, 4, 4, 4, 4, 4, 4, 4, 4, 3, 3, 2, 3, 3, 3, 3, 3, 3, 3, 2, 2, 2, 2, 2, 3, 2, 2, 2, 1, 1, 5, 4, 4, 3, 3, 3, 1, 1, 1, 1, 1, 1, 1, 1, 1, 1, 1, 1, 2, 1, 1, 1, 1, 1, 3, 3, 3, 3, 3, 3, 4, 3, 3, 3, 2, 1, 1, 1, 1, 1, 1, 1, 2, 2, 2, 2, 2, 2, 2, 2, 2, 2, 2, 2, 3, 3, 3, 3, 2, 2, 5, 3, 3, 3, 1, 1, 5, 3, 3, 3, 2, 1, 3, 2, 2, 2, 1, 1, 3, 3, 3, 2, 2, 2, 3, 2, 2, 2, 2, 2, 2, 2, 2, 2, 2, 2, 4, 4, 3, 3, 3, 2, 1, 1, 1, 1, 1, 1, 4, 4, 4, 3, 3, 3, 4, 4, 4, 3, 3, 3, 3, 3, 3, 3, 3, 3, 2, 1, 1, 1, 1, 1, 2, 2, 2, 2, 2, 2, 3, 2, 2, 2, 2, 2, 5, 4, 4, 3, 3, 3, 5, 5, 5, 5, 5, 5, 2, 1, 1, 1, 1, 1, 3, 3, 3, 3, 3, 3, 4, 4, 4, 4, 4, 4, 4, 4, 4, 4, 4, 4, 2, 2, 2, 2, 1, 1, 1, 1, 1, 1, 1, 1, 2, 1, 1, 1, 1, 1, 2, 2, 2, 2, 2, 2
 |3, 3, 3, 2, 2, 2, 3, 2, 2, 2, 1, 1, 4, 3, 3, 3, 3, 3, 4, 3, 3, 3, 3, 3, 4, 4, 3, 2, 2, 1, 2, 2, 2, 2, 2, 2, 4, 3, 3, 3, 2, 2, 3, 2, 2, 1, 1, 1, 4, 4, 4, 4, 4, 4, 2, 2, 2, 2, 2, 2, 4, 3, 3, 2, 1, 1, 3, 3, 3, 3, 3, 3, 3, 3, 3, 2, 2, 2, 1, 1, 1, 1, 1, 1, 2, 2, 2, 2, 2, 2, 4, 3, 3, 2, 2, 2, 5, 4, 3, 3, 2, 2, 1, 1, 1, 1, 1, 1, 4, 3, 3, 3, 3, 3, 2, 2, 2, 2, 1, 1, 5, 5, 5, 5, 5, 5, 3, 3, 3, 3, 2, 2, 3, 3, 3, 3, 3, 3, 1, 1, 1, 1, 1, 1, 5, 4, 3, 3, 3, 2, 2, 1, 1, 1, 1, 1, 3, 3, 3, 2, 1, 1, 4, 4, 3, 3, 3, 2, 2, 1, 1, 1, 1, 1, 3, 3, 3, 3, 3, 3, 5, 4, 4, 4, 3, 3, 4, 4, 4, 4, 4, 4, 4, 3, 3, 3, 2, 2, 5, 4, 4, 4, 4, 4, 1, 1, 1, 1, 1, 1, 2, 2, 2, 2, 2, 2, 3, 3, 3, 3, 2, 2, 4, 3, 3, 3, 3, 3, 3, 3, 3, 3, 3, 3, 5, 4, 4, 4, 3, 3, 2, 2, 2, 2, 2, 2, 5, 4, 4, 3, 3, 3, 4, 3, 3, 3, 2, 2, 4, 4, 4, 4, 4, 4, 2, 2, 2, 2, 2, 2, 4, 3, 3, 3, 2, 2, 4, 4, 4, 4, 4, 4, 2, 2, 2, 1, 1, 1, 1, 1, 1, 1, 1, 1, 4, 4, 4, 3, 3, 3
 |16, 15, 14, 13, 11, 9, 7, 7, 6, 5, 4, 3, 11, 9, 9, 7, 6, 6, 17, 14, 14, 8, 6, 4, 15, 14, 13, 12, 9, 7, 12, 10, 10, 8, 8, 7, 17, 16, 15, 15, 13, 12, 11, 10, 10, 9, 9, 9, 9, 7, 7, 5, 5, 3, 7, 7, 6, 6, 6, 5, 16, 16, 16, 16, 16, 16, 12, 12, 9, 9, 7, 4, 15, 15, 10, 9, 7, 5, 16, 13, 13, 11, 10, 10, 15, 14, 14, 13, 13, 13, 19, 17, 17, 15, 13, 11, 20, 19, 19, 19, 19, 19, 18, 18, 18, 17, 17, 16, 19, 19, 18, 18, 17, 17, 7, 7, 6, 4, 4, 3, 6, 6, 6, 5, 5, 5, 12, 11, 7, 6, 3, 2, 8, 8, 6, 5, 5, 3, 4, 3, 3, 2, 2, 2, 13, 12, 9, 7, 7, 5, 12, 12, 12, 11, 11, 11, 12, 12, 11, 10, 9, 9, 3, 3, 2, 2, 2, 1, 19, 18, 15, 15, 12, 12, 15, 14, 13, 12, 12, 10, 12, 10, 8, 8, 5, 3, 17, 16, 14, 14, 12, 12, 16, 15, 14, 13, 12, 12, 16, 16, 13, 10, 8, 7, 8, 8, 8, 8, 7, 7, 17, 16, 14, 10, 10, 7, 11, 10, 10, 9, 7, 6, 6, 6, 5, 3, 2, 2, 20, 19, 19, 19, 18, 18, 13, 11, 11, 10, 8, 7, 14, 13, 13, 11, 11, 9, 17, 17, 14, 14, 12, 9, 16, 14, 11, 11, 9, 8, 9, 7, 5, 3, 3, 2, 20, 19, 17, 17, 16, 15, 19, 16, 15, 12, 12, 10, 9, 9, 9, 9, 9, 9, 14, 12, 10, 9, 7, 6, 17, 16, 16, 16, 16, 16, 18, 14, 12, 7, 7, 4
 |10, 8, 8, 6, 5, 5, 15, 14, 14, 13, 13, 12, 19, 18, 17, 18, 18, 17, 19, 16, 13, 10, 9, 6, 17, 16, 16, 16, 16, 16, 18, 17, 15, 14, 13, 13, 9, 8, 8, 7, 7, 6, 7, 6, 5, 3, 2, 1, 12, 10, 9, 7, 7, 5, 12, 11, 10, 8, 7, 6, 13, 11, 10, 10, 9, 9, 17, 16, 17, 16, 17, 17, 6, 5, 6, 6, 5, 5, 3, 3, 2, 3, 3, 2, 10, 10, 9, 9, 8, 7, 17, 16, 15, 14, 14, 13, 18, 16, 15, 14, 12, 11, 9, 8, 7, 7, 6, 7, 20, 19, 19, 18, 18, 17, 18, 14, 11, 9, 7, 2, 10, 8, 7, 5, 2, 1, 19, 18, 18, 18, 17, 17, 20, 19, 19, 19, 18, 19, 10, 8, 6, 6, 5, 3, 14, 14, 14, 13, 12, 12, 19, 13, 11, 7, 4, 3, 20, 18, 17, 14, 13, 11, 17, 17, 17, 16, 17, 17, 9, 7, 7, 6, 4, 3, 14, 13, 12, 11, 10, 10, 1, 1, 2, 1, 1, 1, 16, 15, 15, 14, 14, 13, 16, 12, 12, 8, 5, 4, 20, 18, 16, 16, 14, 14, 8, 7, 6, 6, 6, 5, 12, 12, 12, 12, 11, 12, 18, 16, 14, 12, 10, 9, 14, 12, 12, 11, 9, 8, 11, 8, 7, 6, 5, 4, 15, 12, 11, 7, 5, 5, 7, 8, 7, 7, 6, 6, 13, 12, 12, 11, 11, 11, 14, 14, 11, 9, 7, 6, 9, 9, 6, 5, 4, 2, 19, 17, 16, 14, 13, 13, 11, 11, 9, 8, 7, 6, 10, 9, 8, 7, 8, 7, 18, 16, 16, 12, 12, 10, 16, 12, 9, 7, 5, 2, 17, 15, 14, 11, 10, 10|];